8
2147483647 52 51 78 17 42 24 55 
52 2147483647 90 22 24 86 66 75 
51 90 2147483647 6 80 4 62 55 
78 22 6 2147483647 5 50 50 64 
17 24 80 5 2147483647 24 51 86 
42 86 4 50 24 2147483647 5 77 
24 66 62 50 51 5 2147483647 49 
55 75 55 64 86 77 49 2147483647 
